c 1_win_checker.cnf
c
c field = 1
c formula set type = win_checker
c
p cnf 5 6
2 
4 
6 
8 
-10 
3 
5 
7 
9 
-11 
30 
60 
90 
120 
-150 
31 
61 
91 
121 
-151 
32 
64 
96 
128 
-160 
33 
65 
97 
129 
-161 
